1, 36, 31, 32, 24, 37, 47, 46, 45, 44, 25, 23, 1
1, 3, 7, 8, 13, 10, 11, 12, 9, 5, 6, 4, 2, 18, 1
1, 52, 53, 22, 27, 28, 29, 21, 30, 26, 17, 16, 15, 14, 1
1, 33, 34, 35, 39, 42, 43, 51, 50, 48, 49, 41, 40, 38, 20, 19, 1
